code/blocks/blocks_1.cnf
p cnf 30 179
5 0
6 0
3 0
4 0
7 0
-1 0
-2 0
-8 0
-9 0
-10 0
-11 0
-12 5 0
-12 3 0
-12 7 0
-13 6 0
-13 4 0
-13 7 0
-14 8 0
-15 9 0
-16 -10 0
-16 8 0
-16 6 0
-17 -11 0
-17 9 0
-17 5 0
-18 -10 0
-18 1 0
-18 5 0
-18 7 0
-19 -11 0
-19 2 0
-19 6 0
-19 7 0
-12 -22 0
-12 -24 0
-12 -26 0
-12 27 0
-13 -23 0
-13 -25 0
-13 -26 0
-13 28 0
-14 -27 0
-14 24 0
-14 26 0
-14 22 0
-15 -28 0
-15 25 0
-15 26 0
-15 23 0
-16 -27 0
-16 -25 0
-16 24 0
-16 26 0
-16 20 0
-17 -28 0
-17 -24 0
-17 25 0
-17 26 0
-17 21 0
-18 27 0
-18 25 0
-18 -24 0
-18 -26 0
-18 -20 0
-19 28 0
-19 24 0
-19 -25 0
-19 -26 0
-19 -21 0
-12 -1 20 0
-12 -2 21 0
-12 -4 23 0
-12 -6 25 0
-12 -9 28 0
-12 -10 29 0
-12 -11 30 0
-13 -1 20 0
-13 -2 21 0
-13 -3 22 0
-13 -5 24 0
-13 -8 27 0
-13 -10 29 0
-13 -11 30 0
-14 -1 20 0
-14 -2 21 0
-14 -4 23 0
-14 -6 25 0
-14 -9 28 0
-14 -10 29 0
-14 -11 30 0
-15 -1 20 0
-15 -2 21 0
-15 -3 22 0
-15 -5 24 0
-15 -8 27 0
-15 -10 29 0
-15 -11 30 0
-16 -2 21 0
-16 -3 22 0
-16 -4 23 0
-16 -9 28 0
-16 -10 29 0
-16 -11 30 0
-17 -1 20 0
-17 -3 22 0
-17 -4 23 0
-17 -8 27 0
-17 -10 29 0
-17 -11 30 0
-18 -2 21 0
-18 -3 22 0
-18 -4 23 0
-18 -9 28 0
-18 -10 29 0
-18 -11 30 0
-19 -1 20 0
-19 -3 22 0
-19 -4 23 0
-19 -8 27 0
-19 -10 29 0
-19 -11 30 0
12 13 14 15 16 17 18 19  0
-12 -13 0
-12 -14 0
-12 -15 0
-12 -16 0
-12 -17 0
-12 -18 0
-12 -19 0
-13 -12 0
-13 -14 0
-13 -15 0
-13 -16 0
-13 -17 0
-13 -18 0
-13 -19 0
-14 -12 0
-14 -13 0
-14 -15 0
-14 -16 0
-14 -17 0
-14 -18 0
-14 -19 0
-15 -12 0
-15 -13 0
-15 -14 0
-15 -16 0
-15 -17 0
-15 -18 0
-15 -19 0
-16 -12 0
-16 -13 0
-16 -14 0
-16 -15 0
-16 -17 0
-16 -18 0
-16 -19 0
-17 -12 0
-17 -13 0
-17 -14 0
-17 -15 0
-17 -16 0
-17 -18 0
-17 -19 0
-18 -12 0
-18 -13 0
-18 -14 0
-18 -15 0
-18 -16 0
-18 -17 0
-18 -19 0
-19 -12 0
-19 -13 0
-19 -14 0
-19 -15 0
-19 -16 0
-19 -17 0
-19 -18 0
20 0
