code/blocks/blocks_1.out
c 2015-05-19T00:50:37-0300
c arch = x86_64
c os = linux
c compiler = ghc 7.6
c packages:
c   OptDir-0.0.3
c   algebra-3.1
c   array-0.4.0.1
c   base-4.6.0.1
c   bytestring-0.10.0.2
c   containers-0.5.0.0
c   data-interval-0.4.0
c   deepseq-1.3.0.1
c   filepath-1.3.0.1
c   finite-field-0.7.0
c   hashable-1.1.2.5
c   heaps-0.3.1
c   intern-0.9.1.3
c   lattices-1.2.1.1
c   logic-TPTP-0.4.0.0
c   mtl-2.1.2
c   multiset-0.2.2
c   old_locale-1.0.0.5
c   parse_dimacs-1.3
c   parsec-3.1.3
c   prettyclass-1.0.0.0
c   primes-0.2.1.0
c   queue-0.1.2
c   random-1.0.1.1
c   sign-0.3.0
c   stm-2.4.2
c   time-1.4.0.1
c   type-level-numbers-0.1.1.1
c   unbounded-delays-0.1.0.7
c   unordered-containers-0.2.3.0
c   vector-space-0.8.6
c command line = ["+RTS","-H1G","-K1G","-RTS","--search=bcd2","--sat","blocks/blocks_1.cnf"]
c use --random-gen="1497676176 2147483398" option to reproduce the execution
c #vars 28
c #constraints 142
c Solving starts ...
c ============================[ Search Statistics ]============================
c  Time | Restart | Decision | Conflict |      LEARNT     | Fixed    | Removed 
c       |         |          |          |    Limit     GC | Var      | Constra 
c =============================================================================
c  0.0s |       0 |        0 |        0 |       16      0 |       17 |        0
c  0.0s |       0 |        8 |        1 |       16      0 |       18 |        2
c #cpu_time = 0.000s
c #wall_clock_time = 0.000s
c #decision = 8
c #random_decision = 0
c #conflict = 1
c #restart = 0
s SATISFIABLE
v -1 -2 3 4 5 6 7 -8 -9 -10
v -11 12 -13 -14 -15 -16 -17 -18 19 20
v -21 22 -23 24 -25 26 27 28
v 0
c total CPU time = 0.009s
c total wall clock time = 0.010s
